\* RecommendedBooks *\
Maximize
OBJ: __dummy
Subject To
Bounds
__dummy = 0
Binaries
x10050
x10263
x10425
x11011
x11731
x12294
x12858
x13268
x13295
x13351
x13421
x13925
x1411
x14384
x14621
x15156
x15263
x15366
x15498
x15954
x16080
x17154
x17185
x1788
x1797
x18154
x18193
x18343
x2208
x3203
x3623
x4550
x5100
x5346
x611
x6115
x6505
x6602
x7270
x7370
x7440
x7734
x7978
x902
x9047
x9122
x9199
x9972
End
